clingo version 5.6.2
Reading from ...togen_asp_scripts/ijp_expt_cases-85.dl
Solving...
Answer: 1
res(3) witness(3,3,3) witness(3,7,3) witness(3,2,4) witness(3,1,5) witness(3,3,5) witness(5,3,3) witness(5,7,3) witness(5,1,5) witness(5,3,5) witness(6,1,5) witness(6,3,5) number_of_witnesses(11)
Optimization: 11
Answer: 2
res(3) witness(1,1,7) witness(1,3,7) witness(5,3,3) witness(5,6,3) witness(5,2,4) witness(5,3,5) witness(6,3,5) number_of_witnesses(7)
Optimization: 7
